Function: get_partitions took 1.8596649169921875e-05 seconds
Function: map_flows_partitions took 3.5762786865234375e-06 seconds
Building model with:
2 devices, 3 partitions and 1 flows
Using license file /home/anup/gurobi.lic
Academic license - for non-commercial use only
Function: MIP.add_frac_mem_var took 0.00031495094299316406 seconds
Function: MIP.add_coverage_constraints took 0.00020837783813476562 seconds
Function: MIP.add_accuracy_constraints took 0.0001518726348876953 seconds
Function: MIP.add_capacity_constraints took 0.00028967857360839844 seconds
Changed value of parameter TimeLimit to 120.0
   Prev: inf  Min: 0.0  Max: inf  Default: inf
--------------------------------------------------
Starting model update
Model update took: 5.173683166503906e-05 s
--------------------------------------------------
Starting model optimize
Gurobi Optimizer version 9.0.0 build v9.0.0rc2 (linux64)
Optimize a model with 14 rows, 18 columns and 37 nonzeros
Model fingerprint: 0x989e97bf
Model has 1 general constraint
Variable types: 18 continuous, 0 integer (0 binary)
Coefficient statistics:
  Matrix range     [1e+00, 3e+01]
  Objective range  [1e+00, 1e+00]
  Bounds range     [1e+00, 6e+02]
  RHS range        [1e+00, 1e+00]

---------------------------------------------------------------------------
Multi-objectives: starting optimization with 2 objectives ... 
---------------------------------------------------------------------------

Multi-objectives: applying initial presolve ...
---------------------------------------------------------------------------

Presolve removed 5 rows and 6 columns
Presolve time: 0.00s
Presolved: 9 rows and 12 columns
---------------------------------------------------------------------------

Multi-objectives: optimize objective 1 (max_mem) ...
---------------------------------------------------------------------------

Presolve removed 5 rows and 7 columns
Presolve time: 0.00s
Presolved: 4 rows, 5 columns, 10 nonzeros
Variable types: 4 continuous, 1 integer (1 binary)

Root relaxation: objective 5.097070e+01, 2 iterations, 0.00 seconds

    Nodes    |    Current Node    |     Objective Bounds      |     Work
 Expl Unexpl |  Obj  Depth IntInf | Incumbent    BestBd   Gap | It/Node Time

*    0     0               0      50.9707031   50.97070  0.00%     -    0s

Explored 0 nodes (2 simplex iterations) in 0.00 seconds
Thread count was 8 (of 8 available processors)

Solution count 1: 50.9707 

Optimal solution found (tolerance 1.00e-04)
Best objective 5.097070312500e+01, best bound 5.097070312500e+01, gap 0.0000%
---------------------------------------------------------------------------

Multi-objectives: optimize objective 2 (tot_mem) ...
---------------------------------------------------------------------------


Loaded user MIP start with objective 101.941

Presolve removed 5 rows and 7 columns
Presolve time: 0.00s
Presolved: 5 rows, 5 columns, 12 nonzeros
Variable types: 4 continuous, 1 integer (1 binary)

Root relaxation: cutoff, 0 iterations, 0.00 seconds

Explored 0 nodes (0 simplex iterations) in 0.00 seconds
Thread count was 8 (of 8 available processors)

Solution count 1: 101.941 

Optimal solution found (tolerance 1.00e-04)
Best objective 1.019414062500e+02, best bound 1.019414062500e+02, gap 0.0000%

---------------------------------------------------------------------------
Multi-objectives: solved in 0.00 seconds, solution count 1

Model optimize took: 0.003634214401245117 seconds
--------------------------------------------------

Solution quality statistics for model Univmon :
  Maximum violation:
    Bound       : 0.00000000e+00
    Constraint  : 0.00000000e+00
    Integrality : 0.00000000e+00

Sketch (0) (cm: eps0: 0.0003125, del0: 0.05, min_mem: 33.98046875)
Par: 1, Rows: 1
(0.500,0)    (0.500,1)    
Total frac: 1.000
Par: 2, Rows: 1
(0.500,0)    (0.500,1)    
Total frac: 1.000
Par: 3, Rows: 1
(0.500,1)    (0.500,0)    
Total frac: 1.000

Device (0) P4_1:
Rows total: 1.5
Mem total: 50.970703125

Device (1) P4_2:
Rows total: 1.5
Mem total: 50.970703125
--------------------------------------------------

Throughput: 148.0 Mpps, ns per packet: 6.756756756756757
Resources: 2.873779296875
Used Cores: 0, Total CPUS: 0, Switch Memory: 101.94140625

Sketch (0) (cm: eps0: 0.0003125, del0: 0.05, min_mem: 33.98046875)
Par: 1, Rows: 1
(0.500,0)    (0.500,1)    
Total frac: 1.000
Par: 2, Rows: 1
(0.500,0)    (0.500,1)    
Total frac: 1.000
Par: 3, Rows: 1
(0.500,1)    (0.500,0)    
Total frac: 1.000

Device (0) P4_1:
Rows total: 1.5
Mem total: 50.970703125
Throughput: 148.0

Device (1) P4_2:
Rows total: 1.5
Mem total: 50.970703125
Throughput: 148.0
--------------------------------------------------
Function: MIP.solve took 0.011346101760864258 seconds
Function: solve took 0.011595487594604492 seconds
